
Gurobi 6.5.2 (win64) logging started 07/24/16 17:46:52


Gurobi 6.5.2 (win64) logging started 07/24/16 17:46:52

Optimize a model with 3918 rows, 767 columns and 9818 nonzeros
Coefficient statistics:
  Matrix range    [6e-08, 1e+03]
  Objective range [1e+00, 1e+00]
  Bounds range    [1e+00, 1e+00]
  RHS range       [6e-06, 2e+03]
Presolve removed 3664 rows and 504 columns
Presolve time: 0.00s
Presolved: 254 rows, 263 columns, 1082 nonzeros
Variable types: 263 continuous, 0 integer (0 binary)

Root relaxation: objective 1.997988e+01, 303 iterations, 0.00 seconds

    Nodes    |    Current Node    |     Objective Bounds      |     Work
 Expl Unexpl |  Obj  Depth IntInf | Incumbent    BestBd   Gap | It/Node Time

*    0     0               0      19.9798826   19.97988  0.00%     -    0s

Explored 0 nodes (303 simplex iterations) in 0.02 seconds
Thread count was 8 (of 8 available processors)

Optimal solution found (tolerance 1.00e-04)
Best objective 1.997988255123e+01, best bound 1.997988255123e+01, gap 0.0%

Wrote requested result file 'H1\instance26\\Results26EC_Sol5.lp'

